;symbolic execution tree
(push)
(assert (le x2 java.lang.String))
(check-sat)
(push)
(assert (le x3 net.n3.nanoxml.XMLElement))
(check-sat)
(pop)
(push)
(assert (not (le x3 net.n3.nanoxml.XMLElement)))
(check-sat)
(push)
(assert (le x6 net.n3.nanoxml.IXMLReader))
(check-sat)
(pop)
(push)
(assert (not (le x6 net.n3.nanoxml.IXMLReader)))
(check-sat)
(push)
(assert (le x2 java.lang.String))
(check-sat)
(pop)
(push)
(assert (not (le x2 java.lang.String)))
(check-sat)
(pop)
(push)
(assert (le x0 java.lang.String))
(check-sat)
(push)
(assert (le x1 net.n3.nanoxml.XMLElement))
(check-sat)
(pop)
(push)
(assert (not (le x1 net.n3.nanoxml.XMLElement)))
(check-sat)
(pop)
(push)
(assert (le x2 java.lang.String))
(check-sat)
(pop)
(push)
(assert (not (le x2 java.lang.String)))
(check-sat)
(pop)
(pop)
(push)
(assert (not (le x0 java.lang.String)))
(check-sat)
(pop)
(pop)
(push)
(assert (le x1 java.lang.String))
(check-sat)
(push)
(assert (le x7 java.lang.String))
(check-sat)
(push)
(assert (le x3 net.n3.nanoxml.XMLElement))
(check-sat)
(pop)
(push)
(assert (not (le x3 net.n3.nanoxml.XMLElement)))
(check-sat)
(pop)
(pop)
(push)
(assert (not (le x7 java.lang.String)))
(check-sat)
(pop)
(pop)
(push)
(assert (not (le x1 java.lang.String)))
(check-sat)
(push)
(assert (le x5 java.io.PrintStream))
(check-sat)
(pop)
(push)
(assert (not (le x5 java.io.PrintStream)))
(check-sat)
(pop)
(push)
(assert (le x7 java.lang.String))
(check-sat)
(pop)
(push)
(assert (not (le x7 java.lang.String)))
(check-sat)
(pop)
(pop)
(push)
(assert (le x7 java.lang.StringBuilder))
(check-sat)
(pop)
(push)
(assert (not (le x7 java.lang.StringBuilder)))
(check-sat)
(pop)
(pop)
(push)
(assert (le x3 java.util.Properties))
(check-sat)
(pop)
(push)
(assert (not (le x3 java.util.Properties)))
(check-sat)
(push)
(assert (le x2 java.lang.String))
(check-sat)
(pop)
(push)
(assert (not (le x2 java.lang.String)))
(check-sat)
(pop)
(pop)
(push)
(assert (le x5 net.sourceforge.jxml2sql.database.DatabaseElement))
(check-sat)
(push)
(assert (le x7 java.lang.String))
(check-sat)
(push)
(assert (le x3 net.sourceforge.jxml2sql.database.DatabaseField))
(check-sat)
(pop)
(push)
(assert (not (le x3 net.sourceforge.jxml2sql.database.DatabaseField)))
(check-sat)
(push)
(assert (le x7 java.lang.String))
(check-sat)
(pop)
(push)
(assert (not (le x7 java.lang.String)))
(check-sat)
(pop)
(pop)
(pop)
(push)
(assert (not (le x7 java.lang.String)))
(check-sat)
(pop)
(push)
(assert (le x5 net.sourceforge.jxml2sql.database.Database))
(check-sat)
(push)
(assert (le x6 java.util.Properties))
(check-sat)
(push)
(assert (le x7 java.lang.String))
(check-sat)
(pop)
(push)
(assert (not (le x7 java.lang.String)))
(check-sat)
(pop)
(pop)
(push)
(assert (not (le x6 java.util.Properties)))
(check-sat)
(pop)
(pop)
(push)
(assert (not (le x5 net.sourceforge.jxml2sql.database.Database)))
(check-sat)
(pop)
(push)
(assert (le x6 java.lang.String))
(check-sat)
(push)
(assert (le x7 net.n3.nanoxml.XMLElement))
(check-sat)
(pop)
(push)
(assert (not (le x7 net.n3.nanoxml.XMLElement)))
(check-sat)
(pop)
(pop)
(push)
(assert (not (le x6 java.lang.String)))
(check-sat)
(push)
(assert (le x5 net.sourceforge.jxml2sql.database.DatabaseField))
(check-sat)
(pop)
(push)
(assert (not (le x5 net.sourceforge.jxml2sql.database.DatabaseField)))
(check-sat)
(pop)
(pop)
(push)
(assert (le x1 java.lang.String))
(check-sat)
(push)
(assert (le x7 java.lang.StringBuffer))
(check-sat)
(pop)
(push)
(assert (not (le x7 java.lang.StringBuffer)))
(check-sat)
(pop)
(push)
(assert (le x2 java.lang.String))
(check-sat)
(pop)
(push)
(assert (not (le x2 java.lang.String)))
(check-sat)
(pop)
(pop)
(push)
(assert (not (le x1 java.lang.String)))
(check-sat)
(pop)
(push)
(assert (le x0 net.n3.nanoxml.XMLElement))
(check-sat)
(pop)
(push)
(assert (not (le x0 net.n3.nanoxml.XMLElement)))
(check-sat)
(push)
(assert (le x0 net.n3.nanoxml.XMLElement))
(check-sat)
(pop)
(push)
(assert (not (le x0 net.n3.nanoxml.XMLElement)))
(check-sat)
(push)
(assert (le x3 java.lang.String))
(check-sat)
(pop)
(push)
(assert (not (le x3 java.lang.String)))
(check-sat)
(pop)
(pop)
(push)
(assert (le x3 java.lang.String))
(check-sat)
(pop)
(push)
(assert (not (le x3 java.lang.String)))
(check-sat)
(pop)
(pop)
(pop)
(push)
(assert (not (le x5 net.sourceforge.jxml2sql.database.DatabaseElement)))
(check-sat)
(push)
(assert (le x3 java.lang.Class))
(check-sat)
(pop)
(push)
(assert (not (le x3 java.lang.Class)))
(check-sat)
(pop)
(push)
(assert (le x1 net.n3.nanoxml.XMLElement))
(check-sat)
(push)
(assert (le x4 java.lang.String))
(check-sat)
(pop)
(push)
(assert (not (le x4 java.lang.String)))
(check-sat)
(pop)
(pop)
(push)
(assert (not (le x1 net.n3.nanoxml.XMLElement)))
(check-sat)
(pop)
(pop)
(push)
(assert (le x1 java.util.Properties))
(check-sat)
(pop)
(push)
(assert (not (le x1 java.util.Properties)))
(check-sat)
(push)
(assert (le x3 java.lang.String))
(check-sat)
(push)
(assert (le x0 java.lang.StringBuffer))
(check-sat)
(pop)
(push)
(assert (not (le x0 java.lang.StringBuffer)))
(check-sat)
(pop)
(pop)
(push)
(assert (not (le x3 java.lang.String)))
(check-sat)
(pop)
(push)
(assert (le x1 java.util.Hashtable))
(check-sat)
(push)
(assert (le x6 java.lang.String))
(check-sat)
(push)
(assert (le x5 java.lang.StringBuffer))
(check-sat)
(pop)
(push)
(assert (not (le x5 java.lang.StringBuffer)))
(check-sat)
(pop)
(pop)
(push)
(assert (not (le x6 java.lang.String)))
(check-sat)
(pop)
(push)
(assert (le x3 java.lang.String))
(check-sat)
(pop)
(push)
(assert (not (le x3 java.lang.String)))
(check-sat)
(pop)
(push)
(assert (le x5 java.lang.String))
(check-sat)
(pop)
(push)
(assert (not (le x5 java.lang.String)))
(check-sat)
(pop)
(push)
(assert (le x4 java.lang.String))
(check-sat)
(pop)
(push)
(assert (not (le x4 java.lang.String)))
(check-sat)
(pop)
(pop)
(push)
(assert (not (le x1 java.util.Hashtable)))
(check-sat)
(pop)
(push)
(assert (le x4 java.lang.StringBuilder))
(check-sat)
(pop)
(push)
(assert (not (le x4 java.lang.StringBuilder)))
(check-sat)
(pop)
(push)
(assert (le x2 java.lang.String))
(check-sat)
(pop)
(push)
(assert (not (le x2 java.lang.String)))
(check-sat)
(pop)
(push)
(assert (le x2 java.lang.String))
(check-sat)
(push)
(assert (le x5 java.lang.StringBuilder))
(check-sat)
(pop)
(push)
(assert (not (le x5 java.lang.StringBuilder)))
(check-sat)
(pop)
(push)
(assert (le x4 java.util.Properties))
(check-sat)
(push)
(assert (le x2 java.lang.String))
(check-sat)
(pop)
(push)
(assert (not (le x2 java.lang.String)))
(check-sat)
(pop)
(push)
(assert (le x5 java.lang.Class))
(check-sat)
(pop)
(push)
(assert (not (le x5 java.lang.Class)))
(check-sat)
(pop)
(pop)
(push)
(assert (not (le x4 java.util.Properties)))
(check-sat)
(pop)
(push)
(assert (le x6 java.lang.StringBuffer))
(check-sat)
(pop)
(push)
(assert (not (le x6 java.lang.StringBuffer)))
(check-sat)
(push)
(assert (le x4 java.lang.String))
(check-sat)
(pop)
(push)
(assert (not (le x4 java.lang.String)))
(check-sat)
(pop)
(pop)
(push)
(assert (le x2 java.lang.String))
(check-sat)
(pop)
(push)
(assert (not (le x2 java.lang.String)))
(check-sat)
(pop)
(pop)
(push)
(assert (not (le x2 java.lang.String)))
(check-sat)
(pop)
(push)
(assert (le x6 java.lang.String))
(check-sat)
(pop)
(push)
(assert (not (le x6 java.lang.String)))
(check-sat)
(pop)
(push)
(assert (le x1 java.util.Hashtable))
(check-sat)
(pop)
(push)
(assert (not (le x1 java.util.Hashtable)))
(check-sat)
(push)
(assert (le x7 java.lang.String))
(check-sat)
(pop)
(push)
(assert (not (le x7 java.lang.String)))
(check-sat)
(push)
(assert (le x2 java.lang.String))
(check-sat)
(pop)
(push)
(assert (not (le x2 java.lang.String)))
(check-sat)
(pop)
(pop)
(pop)
(push)
(assert (le x0 java.lang.String))
(check-sat)
(pop)
(push)
(assert (not (le x0 java.lang.String)))
(check-sat)
(pop)
(push)
(assert (le x4 java.lang.String))
(check-sat)
(pop)
(push)
(assert (not (le x4 java.lang.String)))
(check-sat)
(push)
(assert (le x5 net.n3.nanoxml.XMLElement))
(check-sat)
(pop)
(push)
(assert (not (le x5 net.n3.nanoxml.XMLElement)))
(check-sat)
(pop)
(pop)
(push)
(assert (le x5 net.sourceforge.jxml2sql.database.DatabaseField))
(check-sat)
(pop)
(push)
(assert (not (le x5 net.sourceforge.jxml2sql.database.DatabaseField)))
(check-sat)
(push)
(assert (le x3 java.util.Vector))
(check-sat)
(pop)
(push)
(assert (not (le x3 java.util.Vector)))
(check-sat)
(pop)
(pop)
(pop)
(push)
(assert (le x4 java.lang.String))
(check-sat)
(push)
(assert (le x6 java.lang.StringBuffer))
(check-sat)
(pop)
(push)
(assert (not (le x6 java.lang.StringBuffer)))
(check-sat)
(pop)
(push)
(assert (le x2 java.lang.String))
(check-sat)
(push)
(assert (le x3 net.n3.nanoxml.XMLElement))
(check-sat)
(pop)
(push)
(assert (not (le x3 net.n3.nanoxml.XMLElement)))
(check-sat)
(pop)
(push)
(assert (le x5 java.lang.String))
(check-sat)
(pop)
(push)
(assert (not (le x5 java.lang.String)))
(check-sat)
(pop)
(push)
(assert (le x4 java.lang.String))
(check-sat)
(pop)
(push)
(assert (not (le x4 java.lang.String)))
(check-sat)
(pop)
(pop)
(push)
(assert (not (le x2 java.lang.String)))
(check-sat)
(pop)
(push)
(assert (le x1 java.util.Properties))
(check-sat)
(push)
(assert (le x2 java.lang.String))
(check-sat)
(pop)
(push)
(assert (not (le x2 java.lang.String)))
(check-sat)
(pop)
(push)
(assert (le x5 java.lang.StringBuffer))
(check-sat)
(push)
(assert (le x3 net.n3.nanoxml.XMLElement))
(check-sat)
(pop)
(push)
(assert (not (le x3 net.n3.nanoxml.XMLElement)))
(check-sat)
(pop)
(push)
(assert (le x7 java.lang.String))
(check-sat)
(pop)
(push)
(assert (not (le x7 java.lang.String)))
(check-sat)
(pop)
(pop)
(push)
(assert (not (le x5 java.lang.StringBuffer)))
(check-sat)
(pop)
(push)
(assert (le x7 java.lang.String))
(check-sat)
(pop)
(push)
(assert (not (le x7 java.lang.String)))
(check-sat)
(push)
(assert (le x1 java.util.Hashtable))
(check-sat)
(pop)
(push)
(assert (not (le x1 java.util.Hashtable)))
(check-sat)
(pop)
(pop)
(pop)
(push)
(assert (not (le x1 java.util.Properties)))
(check-sat)
(pop)
(pop)
(push)
(assert (not (le x4 java.lang.String)))
(check-sat)
(push)
(assert (le x0 java.lang.StringBuffer))
(check-sat)
(pop)
(push)
(assert (not (le x0 java.lang.StringBuffer)))
(check-sat)
(pop)
(pop)
(pop)
(push)
(assert (not (le x2 java.lang.String)))
(check-sat)
(pop)
